7
0, 625, 893, 813, 928, 1013, 932
625, 0, 268, 463, 537, 544, 776
893, 268, 0, 523, 544, 485, 864
813, 463, 523, 0, 115, 226, 340
928, 537, 544, 115, 0, 133, 350
1013, 544, 485, 226, 133, 0, 474
932, 776, 864, 340, 350, 474, 0
